n = 18;
lu = [|-217, 123
      |-14, 88
      |-184, 190
      |8, 200
      |-171, 3
      |-322, -84
      |-280, 55
      |-174, 191
      |-297, -173
      |155, 323
      |75, 243
      |-302, -111
      |-249, -2
      |-85, 293
      |-224, 206
      |-243, 278
      |-30, 34
      |-102, -10|];
